
Gurobi 6.0.5 (linux64) logging started Sun Sep 13 18:02:08 2015

Optimize a model with 2 rows, 6 columns and 6 nonzeros
Coefficient statistics:
  Matrix range    [1e+00, 1e+00]
  Objective range [1e+00, 1e+00]
  Bounds range    [1e+00, 1e+00]
  RHS range       [2e+00, 2e+00]
Found heuristic solution: objective 4
Presolve removed 2 rows and 6 columns
Presolve time: 0.00s

Explored 0 nodes (0 simplex iterations) in 0.00 seconds
Thread count was 1 (of 1 available processors)

Optimal solution found (tolerance 1.00e-04)
Best objective 4.000000000000e+00, best bound 4.000000000000e+00, gap 0.0%

Gurobi 6.0.5 (linux64) logging started Sun Sep 13 18:06:09 2015

Optimize a model with 2 rows, 6 columns and 6 nonzeros
Coefficient statistics:
  Matrix range    [1e+00, 1e+00]
  Objective range [1e+00, 1e+00]
  Bounds range    [1e+00, 1e+00]
  RHS range       [2e+00, 2e+00]
Found heuristic solution: objective 4
Presolve removed 2 rows and 6 columns
Presolve time: 0.00s

Explored 0 nodes (0 simplex iterations) in 0.00 seconds
Thread count was 1 (of 1 available processors)

Optimal solution found (tolerance 1.00e-04)
Best objective 4.000000000000e+00, best bound 4.000000000000e+00, gap 0.0%

Gurobi 6.0.5 (linux64) logging started Sun Sep 13 18:17:13 2015

Optimize a model with 2 rows, 6 columns and 6 nonzeros
Coefficient statistics:
  Matrix range    [1e+00, 1e+00]
  Objective range [1e+00, 1e+00]
  Bounds range    [1e+00, 1e+00]
  RHS range       [2e+00, 2e+00]
Found heuristic solution: objective 4
Presolve removed 2 rows and 6 columns
Presolve time: 0.00s

Explored 0 nodes (0 simplex iterations) in 0.00 seconds
Thread count was 1 (of 1 available processors)

Optimal solution found (tolerance 1.00e-04)
Best objective 4.000000000000e+00, best bound 4.000000000000e+00, gap 0.0%

Gurobi 6.0.5 (linux64) logging started Sun Sep 13 18:27:34 2015

Optimize a model with 2 rows, 6 columns and 6 nonzeros
Coefficient statistics:
  Matrix range    [1e+00, 1e+00]
  Objective range [1e+00, 1e+00]
  Bounds range    [1e+00, 1e+00]
  RHS range       [2e+00, 2e+00]
Found heuristic solution: objective 4
Presolve removed 2 rows and 6 columns
Presolve time: 0.00s

Explored 0 nodes (0 simplex iterations) in 0.00 seconds
Thread count was 1 (of 1 available processors)

Optimal solution found (tolerance 1.00e-04)
Best objective 4.000000000000e+00, best bound 4.000000000000e+00, gap 0.0%

Gurobi 6.0.5 (linux64) logging started Sun Sep 13 18:28:12 2015

Optimize a model with 2 rows, 6 columns and 6 nonzeros
Coefficient statistics:
  Matrix range    [1e+00, 1e+00]
  Objective range [1e+00, 1e+00]
  Bounds range    [1e+00, 1e+00]
  RHS range       [2e+00, 2e+00]
Found heuristic solution: objective 4
Presolve removed 2 rows and 6 columns
Presolve time: 0.00s

Explored 0 nodes (0 simplex iterations) in 0.00 seconds
Thread count was 1 (of 1 available processors)

Optimal solution found (tolerance 1.00e-04)
Best objective 4.000000000000e+00, best bound 4.000000000000e+00, gap 0.0%

Gurobi 6.0.5 (linux64) logging started Tue Sep 15 00:56:26 2015

Optimize a model with 2 rows, 6 columns and 6 nonzeros
Coefficient statistics:
  Matrix range    [1e+00, 1e+00]
  Objective range [1e+00, 1e+00]
  Bounds range    [1e+00, 1e+00]
  RHS range       [2e+00, 2e+00]
Found heuristic solution: objective 4
Presolve removed 2 rows and 6 columns
Presolve time: 0.01s

Explored 0 nodes (0 simplex iterations) in 0.03 seconds
Thread count was 1 (of 1 available processors)

Optimal solution found (tolerance 1.00e-04)
Best objective 4.000000000000e+00, best bound 4.000000000000e+00, gap 0.0%

Gurobi 6.0.5 (linux64) logging started Tue Sep 15 00:58:25 2015

Optimize a model with 2 rows, 6 columns and 6 nonzeros
Coefficient statistics:
  Matrix range    [1e+00, 1e+00]
  Objective range [1e+00, 1e+00]
  Bounds range    [1e+00, 1e+00]
  RHS range       [2e+00, 2e+00]
Found heuristic solution: objective 4
Presolve removed 2 rows and 6 columns
Presolve time: 0.00s

Explored 0 nodes (0 simplex iterations) in 0.00 seconds
Thread count was 1 (of 1 available processors)

Optimal solution found (tolerance 1.00e-04)
Best objective 4.000000000000e+00, best bound 4.000000000000e+00, gap 0.0%

Gurobi 6.0.5 (linux64) logging started Tue Sep 15 01:23:46 2015

Optimize a model with 2 rows, 6 columns and 6 nonzeros
Coefficient statistics:
  Matrix range    [1e+00, 1e+00]
  Objective range [1e+00, 1e+00]
  Bounds range    [1e+00, 1e+00]
  RHS range       [2e+00, 2e+00]
Found heuristic solution: objective 4
Presolve removed 2 rows and 6 columns
Presolve time: 0.00s

Explored 0 nodes (0 simplex iterations) in 0.00 seconds
Thread count was 1 (of 1 available processors)

Optimal solution found (tolerance 1.00e-04)
Best objective 4.000000000000e+00, best bound 4.000000000000e+00, gap 0.0%

Gurobi 6.0.5 (linux64) logging started Tue Sep 15 01:34:11 2015

Optimize a model with 2 rows, 6 columns and 6 nonzeros
Coefficient statistics:
  Matrix range    [1e+00, 1e+00]
  Objective range [1e+00, 1e+00]
  Bounds range    [1e+00, 1e+00]
  RHS range       [2e+00, 2e+00]
Found heuristic solution: objective 4
Presolve removed 2 rows and 6 columns
Presolve time: 0.00s

Explored 0 nodes (0 simplex iterations) in 0.00 seconds
Thread count was 1 (of 1 available processors)

Optimal solution found (tolerance 1.00e-04)
Best objective 4.000000000000e+00, best bound 4.000000000000e+00, gap 0.0%

Gurobi 6.0.5 (linux64) logging started Tue 15 Sep 2015 01:35:17 AM EDT

Optimize a model with 2 rows, 6 columns and 6 nonzeros
Coefficient statistics:
  Matrix range    [1e+00, 1e+00]
  Objective range [1e+00, 1e+00]
  Bounds range    [1e+00, 1e+00]
  RHS range       [2e+00, 2e+00]
Found heuristic solution: objective 4
Presolve removed 2 rows and 6 columns
Presolve time: 0.00s

Explored 0 nodes (0 simplex iterations) in 0.00 seconds
Thread count was 1 (of 1 available processors)

Optimal solution found (tolerance 1.00e-04)
Best objective 4.000000000000e+00, best bound 4.000000000000e+00, gap 0.0%

Gurobi 6.0.5 (linux64) logging started Tue 15 Sep 2015 01:36:21 AM EDT

Optimize a model with 2 rows, 6 columns and 6 nonzeros
Coefficient statistics:
  Matrix range    [1e+00, 1e+00]
  Objective range [1e+00, 1e+00]
  Bounds range    [1e+00, 1e+00]
  RHS range       [2e+00, 2e+00]
Found heuristic solution: objective 4
Presolve removed 2 rows and 6 columns
Presolve time: 0.00s

Explored 0 nodes (0 simplex iterations) in 0.00 seconds
Thread count was 1 (of 1 available processors)

Optimal solution found (tolerance 1.00e-04)
Best objective 4.000000000000e+00, best bound 4.000000000000e+00, gap 0.0%

Gurobi 6.0.5 (linux64) logging started Tue Sep 15 01:37:53 2015

Optimize a model with 2 rows, 6 columns and 6 nonzeros
Coefficient statistics:
  Matrix range    [1e+00, 1e+00]
  Objective range [1e+00, 1e+00]
  Bounds range    [1e+00, 1e+00]
  RHS range       [2e+00, 2e+00]
Found heuristic solution: objective 4
Presolve removed 2 rows and 6 columns
Presolve time: 0.00s

Explored 0 nodes (0 simplex iterations) in 0.00 seconds
Thread count was 1 (of 1 available processors)

Optimal solution found (tolerance 1.00e-04)
Best objective 4.000000000000e+00, best bound 4.000000000000e+00, gap 0.0%

Gurobi 6.0.5 (linux64) logging started Tue Sep 15 01:41:16 2015

Optimize a model with 2 rows, 6 columns and 6 nonzeros
Coefficient statistics:
  Matrix range    [1e+00, 1e+00]
  Objective range [1e+00, 1e+00]
  Bounds range    [1e+00, 1e+00]
  RHS range       [2e+00, 2e+00]
Found heuristic solution: objective 4
Presolve removed 2 rows and 6 columns
Presolve time: 0.00s

Explored 0 nodes (0 simplex iterations) in 0.00 seconds
Thread count was 1 (of 1 available processors)

Optimal solution found (tolerance 1.00e-04)
Best objective 4.000000000000e+00, best bound 4.000000000000e+00, gap 0.0%

Gurobi 6.0.5 (linux64) logging started Tue Sep 15 01:48:17 2015

Optimize a model with 2 rows, 6 columns and 6 nonzeros
Coefficient statistics:
  Matrix range    [1e+00, 1e+00]
  Objective range [1e+00, 1e+00]
  Bounds range    [1e+00, 1e+00]
  RHS range       [2e+00, 2e+00]
Found heuristic solution: objective 4
Presolve removed 2 rows and 6 columns
Presolve time: 0.00s

Explored 0 nodes (0 simplex iterations) in 0.00 seconds
Thread count was 1 (of 1 available processors)

Optimal solution found (tolerance 1.00e-04)
Best objective 4.000000000000e+00, best bound 4.000000000000e+00, gap 0.0%

Gurobi 6.0.5 (linux64) logging started Tue Sep 15 01:49:21 2015

Optimize a model with 2 rows, 6 columns and 6 nonzeros
Coefficient statistics:
  Matrix range    [1e+00, 1e+00]
  Objective range [1e+00, 1e+00]
  Bounds range    [1e+00, 1e+00]
  RHS range       [2e+00, 2e+00]
Found heuristic solution: objective 4
Presolve removed 2 rows and 6 columns
Presolve time: 0.00s

Explored 0 nodes (0 simplex iterations) in 0.00 seconds
Thread count was 1 (of 1 available processors)

Optimal solution found (tolerance 1.00e-04)
Best objective 4.000000000000e+00, best bound 4.000000000000e+00, gap 0.0%

Gurobi 6.0.5 (linux64) logging started Tue Sep 15 01:53:43 2015

Optimize a model with 2 rows, 6 columns and 6 nonzeros
Coefficient statistics:
  Matrix range    [1e+00, 1e+00]
  Objective range [1e+00, 1e+00]
  Bounds range    [1e+00, 1e+00]
  RHS range       [2e+00, 2e+00]
Found heuristic solution: objective 4
Presolve removed 2 rows and 6 columns
Presolve time: 0.00s

Explored 0 nodes (0 simplex iterations) in 0.00 seconds
Thread count was 1 (of 1 available processors)

Optimal solution found (tolerance 1.00e-04)
Best objective 4.000000000000e+00, best bound 4.000000000000e+00, gap 0.0%

Gurobi 6.0.5 (linux64) logging started Tue Sep 15 01:55:20 2015

Optimize a model with 2 rows, 6 columns and 6 nonzeros
Coefficient statistics:
  Matrix range    [1e+00, 1e+00]
  Objective range [1e+00, 1e+00]
  Bounds range    [1e+00, 1e+00]
  RHS range       [2e+00, 2e+00]
Found heuristic solution: objective 4
Presolve removed 2 rows and 6 columns
Presolve time: 0.00s

Explored 0 nodes (0 simplex iterations) in 0.00 seconds
Thread count was 1 (of 1 available processors)

Optimal solution found (tolerance 1.00e-04)
Best objective 4.000000000000e+00, best bound 4.000000000000e+00, gap 0.0%

Gurobi 6.0.5 (linux64) logging started Tue Sep 15 01:55:49 2015

Optimize a model with 2 rows, 6 columns and 6 nonzeros
Coefficient statistics:
  Matrix range    [1e+00, 1e+00]
  Objective range [1e+00, 1e+00]
  Bounds range    [1e+00, 1e+00]
  RHS range       [2e+00, 2e+00]
Found heuristic solution: objective 4
Presolve removed 2 rows and 6 columns
Presolve time: 0.00s

Explored 0 nodes (0 simplex iterations) in 0.00 seconds
Thread count was 1 (of 1 available processors)

Optimal solution found (tolerance 1.00e-04)
Best objective 4.000000000000e+00, best bound 4.000000000000e+00, gap 0.0%

Gurobi 6.0.5 (linux64) logging started Tue Sep 15 01:56:58 2015

Optimize a model with 2 rows, 6 columns and 6 nonzeros
Coefficient statistics:
  Matrix range    [1e+00, 1e+00]
  Objective range [1e+00, 1e+00]
  Bounds range    [1e+00, 1e+00]
  RHS range       [2e+00, 2e+00]
Found heuristic solution: objective 4
Presolve removed 2 rows and 6 columns
Presolve time: 0.00s

Explored 0 nodes (0 simplex iterations) in 0.00 seconds
Thread count was 1 (of 1 available processors)

Optimal solution found (tolerance 1.00e-04)
Best objective 4.000000000000e+00, best bound 4.000000000000e+00, gap 0.0%

Gurobi 6.0.5 (linux64) logging started Tue Sep 15 01:57:23 2015

Optimize a model with 2 rows, 6 columns and 6 nonzeros
Coefficient statistics:
  Matrix range    [1e+00, 1e+00]
  Objective range [1e+00, 1e+00]
  Bounds range    [1e+00, 1e+00]
  RHS range       [2e+00, 2e+00]
Found heuristic solution: objective 4
Presolve removed 2 rows and 6 columns
Presolve time: 0.00s

Explored 0 nodes (0 simplex iterations) in 0.00 seconds
Thread count was 1 (of 1 available processors)

Optimal solution found (tolerance 1.00e-04)
Best objective 4.000000000000e+00, best bound 4.000000000000e+00, gap 0.0%

Gurobi 6.0.5 (linux64) logging started Tue Sep 15 02:05:55 2015

Optimize a model with 2 rows, 0 columns and 0 nonzeros
Coefficient statistics:
  Matrix range    [0e+00, 0e+00]
  Objective range [0e+00, 0e+00]
  Bounds range    [0e+00, 0e+00]
  RHS range       [2e+00, 2e+00]
Presolve removed 2 rows and 0 columns
Presolve time: 0.00s
Presolve: All rows and columns removed
Iteration    Objective       Primal Inf.    Dual Inf.      Time
       0   -0.0000000e+00   0.000000e+00   0.000000e+00      0s

Solved in 0 iterations and 0.05 seconds
Optimal objective -0.000000000e+00

Gurobi 6.0.5 (linux64) logging started Tue Sep 15 20:50:09 2015

Optimize a model with 2 rows, 0 columns and 0 nonzeros
Coefficient statistics:
  Matrix range    [0e+00, 0e+00]
  Objective range [0e+00, 0e+00]
  Bounds range    [0e+00, 0e+00]
  RHS range       [2e+00, 2e+00]
Presolve removed 2 rows and 0 columns
Presolve time: 0.01s
Presolve: All rows and columns removed
Iteration    Objective       Primal Inf.    Dual Inf.      Time
       0   -0.0000000e+00   0.000000e+00   0.000000e+00      0s

Solved in 0 iterations and 0.01 seconds
Optimal objective -0.000000000e+00

Gurobi 6.0.5 (linux64) logging started Sat Sep 19 10:44:40 2015


Gurobi 6.0.5 (linux64) logging started Sat Sep 19 10:45:16 2015


Gurobi 6.0.5 (linux64) logging started Sat Sep 19 10:46:15 2015


Gurobi 6.0.5 (linux64) logging started Sat Sep 19 11:18:05 2015

Optimize a model with 7416 rows, 129600 columns and 259200 nonzeros
Coefficient statistics:
  Matrix range    [1e+00, 1e+00]
  Objective range [1e+00, 1e+00]
  Bounds range    [1e+00, 1e+00]
  RHS range       [2e+00, 2e+00]
Found heuristic solution: objective 0
Presolve removed 7416 rows and 129600 columns
Presolve time: 0.14s

Explored 0 nodes (0 simplex iterations) in 0.22 seconds
Thread count was 1 (of 1 available processors)

Optimal solution found (tolerance 1.00e-04)
Best objective 0.000000000000e+00, best bound 0.000000000000e+00, gap 0.0%
Warning: constraints 0 and 1 have the same name "Student600.Course18.semester12"

Gurobi 6.0.5 (linux64) logging started Sat Sep 19 12:43:40 2015

